benchmarks/result/bug3.output
sat
(model
  (define-fun x0 () String
    "aabc")
  (define-fun x1 () String
    "ccbc")
  (define-fun x2 () String
    "ccdc")
  (define-fun x3 () String
    "aada")
  (define-fun i () Int
    4)
)
